p cnf 15 32
-9 -11 13 0
-2 9 -15 0
-9 10 -13 0
8 -13 -15 0
5 8 -9 0
5 6 12 0
-3 -6 8 0
2 -4 5 0
9 -10 12 0
9 -10 13 0
2 -5 9 0
-7 13 -14 0
1 -4 12 0
2 4 10 0
3 4 -5 0
-1 -3 -8 0
5 8 -15 0
-10 -12 -15 0
-2 -9 -13 0
3 -10 -13 0
3 5 10 0
-1 9 -11 0
-2 12 15 0
4 7 12 0
1 2 7 0
-1 5 -8 0
8 -14 -15 0
-3 -6 13 0
2 3 8 0
7 9 15 0
4 -10 15 0
5 7 -9 0
